c not original file ! May have been modified for weighted vertex coloring problem (edges and vertices stay the same only weights may have been moved to an other file)
p edge 213 2392
e 1 2
e 1 3
e 1 4
e 1 5
e 1 6
e 1 7
e 1 8
e 1 9
e 1 10
e 1 11
e 1 12
e 1 13
e 1 14
e 1 15
e 1 16
e 1 28
e 1 48
e 1 57
e 1 68
e 1 84
e 1 99
e 1 110
e 1 122
e 1 137
e 1 149
e 1 161
e 1 172
e 1 186
e 2 3
e 2 4
e 2 5
e 2 6
e 2 7
e 2 8
e 2 9
e 2 10
e 2 11
e 2 12
e 2 13
e 2 14
e 2 15
e 2 17
e 2 29
e 2 49
e 2 58
e 2 75
e 2 85
e 2 111
e 2 123
e 2 138
e 2 150
e 2 201
e 3 4
e 3 5
e 3 6
e 3 7
e 3 8
e 3 9
e 3 10
e 3 11
e 3 12
e 3 13
e 3 14
e 3 15
e 3 18
e 3 30
e 3 38
e 3 86
e 3 173
e 3 187
e 3 202
e 4 5
e 4 6
e 4 7
e 4 8
e 4 9
e 4 10
e 4 11
e 4 12
e 4 13
e 4 14
e 4 15
e 4 76
e 4 112
e 4 124
e 4 139
e 4 174
e 4 188
e 5 6
e 5 7
e 5 8
e 5 9
e 5 10
e 5 11
e 5 12
e 5 13
e 5 14
e 5 15
e 5 31
e 5 39
e 5 50
e 5 59
e 5 87
e 5 100
e 5 125
e 5 151
e 5 162
e 5 189
e 6 7
e 6 8
e 6 9
e 6 10
e 6 11
e 6 12
e 6 13
e 6 14
e 6 15
e 6 33
e 6 40
e 6 61
e 6 78
e 6 89
e 6 102
e 6 127
e 6 141
e 6 152
e 6 164
e 6 175
e 6 191
e 6 204
e 7 8
e 7 9
e 7 10
e 7 11
e 7 12
e 7 13
e 7 14
e 7 15
e 7 20
e 7 41
e 7 70
e 7 90
e 7 103
e 7 114
e 7 128
e 7 142
e 7 176
e 7 192
e 8 9
e 8 10
e 8 11
e 8 12
e 8 13
e 8 14
e 8 15
e 8 21
e 8 34
e 8 42
e 8 62
e 8 79
e 8 91
e 8 104
e 8 129
e 8 143
e 8 165
e 8 177
e 8 205
e 9 10
e 9 11
e 9 12
e 9 13
e 9 14
e 9 15
e 9 22
e 9 43
e 9 51
e 9 63
e 9 115
e 9 144
e 9 153
e 9 166
e 9 206
e 10 11
e 10 12
e 10 13
e 10 14
e 10 15
e 10 23
e 10 44
e 10 64
e 10 80
e 10 92
e 10 105
e 10 116
e 10 130
e 10 145
e 10 154
e 10 178
e 10 193
e 10 207
e 11 12
e 11 13
e 11 14
e 11 15
e 11 24
e 11 45
e 11 52
e 11 94
e 11 132
e 11 146
e 11 156
e 11 168
e 11 180
e 11 195
e 11 209
e 12 13
e 12 14
e 12 15
e 12 25
e 12 35
e 12 53
e 12 81
e 12 95
e 12 118
e 12 133
e 12 147
e 12 157
e 12 169
e 12 181
e 12 196
e 13 14
e 13 15
e 13 37
e 13 46
e 13 66
e 13 72
e 13 97
e 13 120
e 13 134
e 13 158
e 13 170
e 13 183
e 13 198
e 13 211
e 14 15
e 14 55
e 14 67
e 14 73
e 14 82
e 14 98
e 14 108
e 14 135
e 14 159
e 14 171
e 14 184
e 14 199
e 14 212
e 15 27
e 15 47
e 15 56
e 15 74
e 15 83
e 15 109
e 15 121
e 15 136
e 15 160
e 15 185
e 15 200
e 15 213
e 16 17
e 16 18
e 16 19
e 16 20
e 16 21
e 16 22
e 16 23
e 16 24
e 16 25
e 16 26
e 16 27
e 16 28
e 16 48
e 16 57
e 16 68
e 16 84
e 16 99
e 16 110
e 16 122
e 16 137
e 16 149
e 16 161
e 16 172
e 16 186
e 17 18
e 17 19
e 17 20
e 17 21
e 17 22
e 17 23
e 17 24
e 17 25
e 17 26
e 17 27
e 17 29
e 17 49
e 17 58
e 17 75
e 17 85
e 17 111
e 17 123
e 17 138
e 17 150
e 17 201
e 18 19
e 18 20
e 18 21
e 18 22
e 18 23
e 18 24
e 18 25
e 18 26
e 18 27
e 18 30
e 18 38
e 18 86
e 18 173
e 18 187
e 18 202
e 19 20
e 19 21
e 19 22
e 19 23
e 19 24
e 19 25
e 19 26
e 19 27
e 19 32
e 19 60
e 19 69
e 19 77
e 19 88
e 19 101
e 19 113
e 19 126
e 19 140
e 19 163
e 19 190
e 19 203
e 20 21
e 20 22
e 20 23
e 20 24
e 20 25
e 20 26
e 20 27
e 20 41
e 20 70
e 20 90
e 20 103
e 20 114
e 20 128
e 20 142
e 20 176
e 20 192
e 21 22
e 21 23
e 21 24
e 21 25
e 21 26
e 21 27
e 21 34
e 21 42
e 21 62
e 21 79
e 21 91
e 21 104
e 21 129
e 21 143
e 21 165
e 21 177
e 21 205
e 22 23
e 22 24
e 22 25
e 22 26
e 22 27
e 22 43
e 22 51
e 22 63
e 22 115
e 22 144
e 22 153
e 22 166
e 22 206
e 23 24
e 23 25
e 23 26
e 23 27
e 23 44
e 23 64
e 23 80
e 23 92
e 23 105
e 23 116
e 23 130
e 23 145
e 23 154
e 23 178
e 23 193
e 23 207
e 24 25
e 24 26
e 24 27
e 24 45
e 24 52
e 24 94
e 24 132
e 24 146
e 24 156
e 24 168
e 24 180
e 24 195
e 24 209
e 25 26
e 25 27
e 25 35
e 25 53
e 25 81
e 25 95
e 25 118
e 25 133
e 25 147
e 25 157
e 25 169
e 25 181
e 25 196
e 26 27
e 26 36
e 26 54
e 26 96
e 26 107
e 26 119
e 26 148
e 26 182
e 26 197
e 26 210
e 27 47
e 27 56
e 27 74
e 27 83
e 27 109
e 27 121
e 27 136
e 27 160
e 27 185
e 27 200
e 27 213
e 28 29
e 28 30
e 28 31
e 28 32
e 28 33
e 28 34
e 28 35
e 28 36
e 28 37
e 28 48
e 28 57
e 28 68
e 28 84
e 28 99
e 28 110
e 28 122
e 28 137
e 28 149
e 28 161
e 28 172
e 28 186
e 29 30
e 29 31
e 29 32
e 29 33
e 29 34
e 29 35
e 29 36
e 29 37
e 29 49
e 29 58
e 29 75
e 29 85
e 29 111
e 29 123
e 29 138
e 29 150
e 29 201
e 30 31
e 30 32
e 30 33
e 30 34
e 30 35
e 30 36
e 30 37
e 30 38
e 30 86
e 30 173
e 30 187
e 30 202
e 31 32
e 31 33
e 31 34
e 31 35
e 31 36
e 31 37
e 31 39
e 31 50
e 31 59
e 31 87
e 31 100
e 31 125
e 31 151
e 31 162
e 31 189
e 32 33
e 32 34
e 32 35
e 32 36
e 32 37
e 32 60
e 32 69
e 32 77
e 32 88
e 32 101
e 32 113
e 32 126
e 32 140
e 32 163
e 32 190
e 32 203
e 33 34
e 33 35
e 33 36
e 33 37
e 33 40
e 33 61
e 33 78
e 33 89
e 33 102
e 33 127
e 33 141
e 33 152
e 33 164
e 33 175
e 33 191
e 33 204
e 34 35
e 34 36
e 34 37
e 34 42
e 34 62
e 34 79
e 34 91
e 34 104
e 34 129
e 34 143
e 34 165
e 34 177
e 34 205
e 35 36
e 35 37
e 35 53
e 35 81
e 35 95
e 35 118
e 35 133
e 35 147
e 35 157
e 35 169
e 35 181
e 35 196
e 36 37
e 36 54
e 36 96
e 36 107
e 36 119
e 36 148
e 36 182
e 36 197
e 36 210
e 37 46
e 37 66
e 37 72
e 37 97
e 37 120
e 37 134
e 37 158
e 37 170
e 37 183
e 37 198
e 37 211
e 38 39
e 38 40
e 38 41
e 38 42
e 38 43
e 38 44
e 38 45
e 38 46
e 38 47
e 38 86
e 38 173
e 38 187
e 38 202
e 39 40
e 39 41
e 39 42
e 39 43
e 39 44
e 39 45
e 39 46
e 39 47
e 39 50
e 39 59
e 39 87
e 39 100
e 39 125
e 39 151
e 39 162
e 39 189
e 40 41
e 40 42
e 40 43
e 40 44
e 40 45
e 40 46
e 40 47
e 40 61
e 40 78
e 40 89
e 40 102
e 40 127
e 40 141
e 40 152
e 40 164
e 40 175
e 40 191
e 40 204
e 41 42
e 41 43
e 41 44
e 41 45
e 41 46
e 41 47
e 41 70
e 41 90
e 41 103
e 41 114
e 41 128
e 41 142
e 41 176
e 41 192
e 42 43
e 42 44
e 42 45
e 42 46
e 42 47
e 42 62
e 42 79
e 42 91
e 42 104
e 42 129
e 42 143
e 42 165
e 42 177
e 42 205
e 43 44
e 43 45
e 43 46
e 43 47
e 43 51
e 43 63
e 43 115
e 43 144
e 43 153
e 43 166
e 43 206
e 44 45
e 44 46
e 44 47
e 44 64
e 44 80
e 44 92
e 44 105
e 44 116
e 44 130
e 44 145
e 44 154
e 44 178
e 44 193
e 44 207
e 45 46
e 45 47
e 45 52
e 45 94
e 45 132
e 45 146
e 45 156
e 45 168
e 45 180
e 45 195
e 45 209
e 46 47
e 46 66
e 46 72
e 46 97
e 46 120
e 46 134
e 46 158
e 46 170
e 46 183
e 46 198
e 46 211
e 47 56
e 47 74
e 47 83
e 47 109
e 47 121
e 47 136
e 47 160
e 47 185
e 47 200
e 47 213
e 48 49
e 48 50
e 48 51
e 48 52
e 48 53
e 48 54
e 48 55
e 48 56
e 48 57
e 48 68
e 48 84
e 48 99
e 48 110
e 48 122
e 48 137
e 48 149
e 48 161
e 48 172
e 48 186
e 49 50
e 49 51
e 49 52
e 49 53
e 49 54
e 49 55
e 49 56
e 49 58
e 49 75
e 49 85
e 49 111
e 49 123
e 49 138
e 49 150
e 49 201
e 50 51
e 50 52
e 50 53
e 50 54
e 50 55
e 50 56
e 50 59
e 50 87
e 50 100
e 50 125
e 50 151
e 50 162
e 50 189
e 51 52
e 51 53
e 51 54
e 51 55
e 51 56
e 51 63
e 51 115
e 51 144
e 51 153
e 51 166
e 51 206
e 52 53
e 52 54
e 52 55
e 52 56
e 52 94
e 52 132
e 52 146
e 52 156
e 52 168
e 52 180
e 52 195
e 52 209
e 53 54
e 53 55
e 53 56
e 53 81
e 53 95
e 53 118
e 53 133
e 53 147
e 53 157
e 53 169
e 53 181
e 53 196
e 54 55
e 54 56
e 54 96
e 54 107
e 54 119
e 54 148
e 54 182
e 54 197
e 54 210
e 55 56
e 55 67
e 55 73
e 55 82
e 55 98
e 55 108
e 55 135
e 55 159
e 55 171
e 55 184
e 55 199
e 55 212
e 56 74
e 56 83
e 56 109
e 56 121
e 56 136
e 56 160
e 56 185
e 56 200
e 56 213
e 57 58
e 57 59
e 57 60
e 57 61
e 57 62
e 57 63
e 57 64
e 57 65
e 57 66
e 57 67
e 57 68
e 57 84
e 57 99
e 57 110
e 57 122
e 57 137
e 57 149
e 57 161
e 57 172
e 57 186
e 58 59
e 58 60
e 58 61
e 58 62
e 58 63
e 58 64
e 58 65
e 58 66
e 58 67
e 58 75
e 58 85
e 58 111
e 58 123
e 58 138
e 58 150
e 58 201
e 59 60
e 59 61
e 59 62
e 59 63
e 59 64
e 59 65
e 59 66
e 59 67
e 59 87
e 59 100
e 59 125
e 59 151
e 59 162
e 59 189
e 60 61
e 60 62
e 60 63
e 60 64
e 60 65
e 60 66
e 60 67
e 60 69
e 60 77
e 60 88
e 60 101
e 60 113
e 60 126
e 60 140
e 60 163
e 60 190
e 60 203
e 61 62
e 61 63
e 61 64
e 61 65
e 61 66
e 61 67
e 61 78
e 61 89
e 61 102
e 61 127
e 61 141
e 61 152
e 61 164
e 61 175
e 61 191
e 61 204
e 62 63
e 62 64
e 62 65
e 62 66
e 62 67
e 62 79
e 62 91
e 62 104
e 62 129
e 62 143
e 62 165
e 62 177
e 62 205
e 63 64
e 63 65
e 63 66
e 63 67
e 63 115
e 63 144
e 63 153
e 63 166
e 63 206
e 64 65
e 64 66
e 64 67
e 64 80
e 64 92
e 64 105
e 64 116
e 64 130
e 64 145
e 64 154
e 64 178
e 64 193
e 64 207
e 65 66
e 65 67
e 65 71
e 65 93
e 65 106
e 65 117
e 65 131
e 65 155
e 65 167
e 65 179
e 65 194
e 65 208
e 66 67
e 66 72
e 66 97
e 66 120
e 66 134
e 66 158
e 66 170
e 66 183
e 66 198
e 66 211
e 67 73
e 67 82
e 67 98
e 67 108
e 67 135
e 67 159
e 67 171
e 67 184
e 67 199
e 67 212
e 68 69
e 68 70
e 68 71
e 68 72
e 68 73
e 68 74
e 68 84
e 68 99
e 68 110
e 68 122
e 68 137
e 68 149
e 68 161
e 68 172
e 68 186
e 69 70
e 69 71
e 69 72
e 69 73
e 69 74
e 69 77
e 69 88
e 69 101
e 69 113
e 69 126
e 69 140
e 69 163
e 69 190
e 69 203
e 70 71
e 70 72
e 70 73
e 70 74
e 70 90
e 70 103
e 70 114
e 70 128
e 70 142
e 70 176
e 70 192
e 71 72
e 71 73
e 71 74
e 71 93
e 71 106
e 71 117
e 71 131
e 71 155
e 71 167
e 71 179
e 71 194
e 71 208
e 72 73
e 72 74
e 72 97
e 72 120
e 72 134
e 72 158
e 72 170
e 72 183
e 72 198
e 72 211
e 73 74
e 73 82
e 73 98
e 73 108
e 73 135
e 73 159
e 73 171
e 73 184
e 73 199
e 73 212
e 74 83
e 74 109
e 74 121
e 74 136
e 74 160
e 74 185
e 74 200
e 74 213
e 75 76
e 75 77
e 75 78
e 75 79
e 75 80
e 75 81
e 75 82
e 75 83
e 75 85
e 75 111
e 75 123
e 75 138
e 75 150
e 75 201
e 76 77
e 76 78
e 76 79
e 76 80
e 76 81
e 76 82
e 76 83
e 76 112
e 76 124
e 76 139
e 76 174
e 76 188
e 77 78
e 77 79
e 77 80
e 77 81
e 77 82
e 77 83
e 77 88
e 77 101
e 77 113
e 77 126
e 77 140
e 77 163
e 77 190
e 77 203
e 78 79
e 78 80
e 78 81
e 78 82
e 78 83
e 78 89
e 78 102
e 78 127
e 78 141
e 78 152
e 78 164
e 78 175
e 78 191
e 78 204
e 79 80
e 79 81
e 79 82
e 79 83
e 79 91
e 79 104
e 79 129
e 79 143
e 79 165
e 79 177
e 79 205
e 80 81
e 80 82
e 80 83
e 80 92
e 80 105
e 80 116
e 80 130
e 80 145
e 80 154
e 80 178
e 80 193
e 80 207
e 81 82
e 81 83
e 81 95
e 81 118
e 81 133
e 81 147
e 81 157
e 81 169
e 81 181
e 81 196
e 82 83
e 82 98
e 82 108
e 82 135
e 82 159
e 82 171
e 82 184
e 82 199
e 82 212
e 83 109
e 83 121
e 83 136
e 83 160
e 83 185
e 83 200
e 83 213
e 84 85
e 84 86
e 84 87
e 84 88
e 84 89
e 84 90
e 84 91
e 84 92
e 84 93
e 84 94
e 84 95
e 84 96
e 84 97
e 84 98
e 84 99
e 84 110
e 84 122
e 84 137
e 84 149
e 84 161
e 84 172
e 84 186
e 85 86
e 85 87
e 85 88
e 85 89
e 85 90
e 85 91
e 85 92
e 85 93
e 85 94
e 85 95
e 85 96
e 85 97
e 85 98
e 85 111
e 85 123
e 85 138
e 85 150
e 85 201
e 86 87
e 86 88
e 86 89
e 86 90
e 86 91
e 86 92
e 86 93
e 86 94
e 86 95
e 86 96
e 86 97
e 86 98
e 86 173
e 86 187
e 86 202
e 87 88
e 87 89
e 87 90
e 87 91
e 87 92
e 87 93
e 87 94
e 87 95
e 87 96
e 87 97
e 87 98
e 87 100
e 87 125
e 87 151
e 87 162
e 87 189
e 88 89
e 88 90
e 88 91
e 88 92
e 88 93
e 88 94
e 88 95
e 88 96
e 88 97
e 88 98
e 88 101
e 88 113
e 88 126
e 88 140
e 88 163
e 88 190
e 88 203
e 89 90
e 89 91
e 89 92
e 89 93
e 89 94
e 89 95
e 89 96
e 89 97
e 89 98
e 89 102
e 89 127
e 89 141
e 89 152
e 89 164
e 89 175
e 89 191
e 89 204
e 90 91
e 90 92
e 90 93
e 90 94
e 90 95
e 90 96
e 90 97
e 90 98
e 90 103
e 90 114
e 90 128
e 90 142
e 90 176
e 90 192
e 91 92
e 91 93
e 91 94
e 91 95
e 91 96
e 91 97
e 91 98
e 91 104
e 91 129
e 91 143
e 91 165
e 91 177
e 91 205
e 92 93
e 92 94
e 92 95
e 92 96
e 92 97
e 92 98
e 92 105
e 92 116
e 92 130
e 92 145
e 92 154
e 92 178
e 92 193
e 92 207
e 93 94
e 93 95
e 93 96
e 93 97
e 93 98
e 93 106
e 93 117
e 93 131
e 93 155
e 93 167
e 93 179
e 93 194
e 93 208
e 94 95
e 94 96
e 94 97
e 94 98
e 94 132
e 94 146
e 94 156
e 94 168
e 94 180
e 94 195
e 94 209
e 95 96
e 95 97
e 95 98
e 95 118
e 95 133
e 95 147
e 95 157
e 95 169
e 95 181
e 95 196
e 96 97
e 96 98
e 96 107
e 96 119
e 96 148
e 96 182
e 96 197
e 96 210
e 97 98
e 97 120
e 97 134
e 97 158
e 97 170
e 97 183
e 97 198
e 97 211
e 98 108
e 98 135
e 98 159
e 98 171
e 98 184
e 98 199
e 98 212
e 99 100
e 99 101
e 99 102
e 99 103
e 99 104
e 99 105
e 99 106
e 99 107
e 99 108
e 99 109
e 99 110
e 99 122
e 99 137
e 99 149
e 99 161
e 99 172
e 99 186
e 100 101
e 100 102
e 100 103
e 100 104
e 100 105
e 100 106
e 100 107
e 100 108
e 100 109
e 100 125
e 100 151
e 100 162
e 100 189
e 101 102
e 101 103
e 101 104
e 101 105
e 101 106
e 101 107
e 101 108
e 101 109
e 101 113
e 101 126
e 101 140
e 101 163
e 101 190
e 101 203
e 102 103
e 102 104
e 102 105
e 102 106
e 102 107
e 102 108
e 102 109
e 102 127
e 102 141
e 102 152
e 102 164
e 102 175
e 102 191
e 102 204
e 103 104
e 103 105
e 103 106
e 103 107
e 103 108
e 103 109
e 103 114
e 103 128
e 103 142
e 103 176
e 103 192
e 104 105
e 104 106
e 104 107
e 104 108
e 104 109
e 104 129
e 104 143
e 104 165
e 104 177
e 104 205
e 105 106
e 105 107
e 105 108
e 105 109
e 105 116
e 105 130
e 105 145
e 105 154
e 105 178
e 105 193
e 105 207
e 106 107
e 106 108
e 106 109
e 106 117
e 106 131
e 106 155
e 106 167
e 106 179
e 106 194
e 106 208
e 107 108
e 107 109
e 107 119
e 107 148
e 107 182
e 107 197
e 107 210
e 108 109
e 108 135
e 108 159
e 108 171
e 108 184
e 108 199
e 108 212
e 109 121
e 109 136
e 109 160
e 109 185
e 109 200
e 109 213
e 110 111
e 110 112
e 110 113
e 110 114
e 110 115
e 110 116
e 110 117
e 110 118
e 110 119
e 110 120
e 110 121
e 110 122
e 110 137
e 110 149
e 110 161
e 110 172
e 110 186
e 111 112
e 111 113
e 111 114
e 111 115
e 111 116
e 111 117
e 111 118
e 111 119
e 111 120
e 111 121
e 111 123
e 111 138
e 111 150
e 111 201
e 112 113
e 112 114
e 112 115
e 112 116
e 112 117
e 112 118
e 112 119
e 112 120
e 112 121
e 112 124
e 112 139
e 112 174
e 112 188
e 113 114
e 113 115
e 113 116
e 113 117
e 113 118
e 113 119
e 113 120
e 113 121
e 113 126
e 113 140
e 113 163
e 113 190
e 113 203
e 114 115
e 114 116
e 114 117
e 114 118
e 114 119
e 114 120
e 114 121
e 114 128
e 114 142
e 114 176
e 114 192
e 115 116
e 115 117
e 115 118
e 115 119
e 115 120
e 115 121
e 115 144
e 115 153
e 115 166
e 115 206
e 116 117
e 116 118
e 116 119
e 116 120
e 116 121
e 116 130
e 116 145
e 116 154
e 116 178
e 116 193
e 116 207
e 117 118
e 117 119
e 117 120
e 117 121
e 117 131
e 117 155
e 117 167
e 117 179
e 117 194
e 117 208
e 118 119
e 118 120
e 118 121
e 118 133
e 118 147
e 118 157
e 118 169
e 118 181
e 118 196
e 119 120
e 119 121
e 119 148
e 119 182
e 119 197
e 119 210
e 120 121
e 120 134
e 120 158
e 120 170
e 120 183
e 120 198
e 120 211
e 121 136
e 121 160
e 121 185
e 121 200
e 121 213
e 122 123
e 122 124
e 122 125
e 122 126
e 122 127
e 122 128
e 122 129
e 122 130
e 122 131
e 122 132
e 122 133
e 122 134
e 122 135
e 122 136
e 122 137
e 122 149
e 122 161
e 122 172
e 122 186
e 123 124
e 123 125
e 123 126
e 123 127
e 123 128
e 123 129
e 123 130
e 123 131
e 123 132
e 123 133
e 123 134
e 123 135
e 123 136
e 123 138
e 123 150
e 123 201
e 124 125
e 124 126
e 124 127
e 124 128
e 124 129
e 124 130
e 124 131
e 124 132
e 124 133
e 124 134
e 124 135
e 124 136
e 124 139
e 124 174
e 124 188
e 125 126
e 125 127
e 125 128
e 125 129
e 125 130
e 125 131
e 125 132
e 125 133
e 125 134
e 125 135
e 125 136
e 125 151
e 125 162
e 125 189
e 126 127
e 126 128
e 126 129
e 126 130
e 126 131
e 126 132
e 126 133
e 126 134
e 126 135
e 126 136
e 126 140
e 126 163
e 126 190
e 126 203
e 127 128
e 127 129
e 127 130
e 127 131
e 127 132
e 127 133
e 127 134
e 127 135
e 127 136
e 127 141
e 127 152
e 127 164
e 127 175
e 127 191
e 127 204
e 128 129
e 128 130
e 128 131
e 128 132
e 128 133
e 128 134
e 128 135
e 128 136
e 128 142
e 128 176
e 128 192
e 129 130
e 129 131
e 129 132
e 129 133
e 129 134
e 129 135
e 129 136
e 129 143
e 129 165
e 129 177
e 129 205
e 130 131
e 130 132
e 130 133
e 130 134
e 130 135
e 130 136
e 130 145
e 130 154
e 130 178
e 130 193
e 130 207
e 131 132
e 131 133
e 131 134
e 131 135
e 131 136
e 131 155
e 131 167
e 131 179
e 131 194
e 131 208
e 132 133
e 132 134
e 132 135
e 132 136
e 132 146
e 132 156
e 132 168
e 132 180
e 132 195
e 132 209
e 133 134
e 133 135
e 133 136
e 133 147
e 133 157
e 133 169
e 133 181
e 133 196
e 134 135
e 134 136
e 134 158
e 134 170
e 134 183
e 134 198
e 134 211
e 135 136
e 135 159
e 135 171
e 135 184
e 135 199
e 135 212
e 136 160
e 136 185
e 136 200
e 136 213
e 137 138
e 137 139
e 137 140
e 137 141
e 137 142
e 137 143
e 137 144
e 137 145
e 137 146
e 137 147
e 137 148
e 137 149
e 137 161
e 137 172
e 137 186
e 138 139
e 138 140
e 138 141
e 138 142
e 138 143
e 138 144
e 138 145
e 138 146
e 138 147
e 138 148
e 138 150
e 138 201
e 139 140
e 139 141
e 139 142
e 139 143
e 139 144
e 139 145
e 139 146
e 139 147
e 139 148
e 139 174
e 139 188
e 140 141
e 140 142
e 140 143
e 140 144
e 140 145
e 140 146
e 140 147
e 140 148
e 140 163
e 140 190
e 140 203
e 141 142
e 141 143
e 141 144
e 141 145
e 141 146
e 141 147
e 141 148
e 141 152
e 141 164
e 141 175
e 141 191
e 141 204
e 142 143
e 142 144
e 142 145
e 142 146
e 142 147
e 142 148
e 142 176
e 142 192
e 143 144
e 143 145
e 143 146
e 143 147
e 143 148
e 143 165
e 143 177
e 143 205
e 144 145
e 144 146
e 144 147
e 144 148
e 144 153
e 144 166
e 144 206
e 145 146
e 145 147
e 145 148
e 145 154
e 145 178
e 145 193
e 145 207
e 146 147
e 146 148
e 146 156
e 146 168
e 146 180
e 146 195
e 146 209
e 147 148
e 147 157
e 147 169
e 147 181
e 147 196
e 148 182
e 148 197
e 148 210
e 149 150
e 149 151
e 149 152
e 149 153
e 149 154
e 149 155
e 149 156
e 149 157
e 149 158
e 149 159
e 149 160
e 149 161
e 149 172
e 149 186
e 150 151
e 150 152
e 150 153
e 150 154
e 150 155
e 150 156
e 150 157
e 150 158
e 150 159
e 150 160
e 150 201
e 151 152
e 151 153
e 151 154
e 151 155
e 151 156
e 151 157
e 151 158
e 151 159
e 151 160
e 151 162
e 151 189
e 152 153
e 152 154
e 152 155
e 152 156
e 152 157
e 152 158
e 152 159
e 152 160
e 152 164
e 152 175
e 152 191
e 152 204
e 153 154
e 153 155
e 153 156
e 153 157
e 153 158
e 153 159
e 153 160
e 153 166
e 153 206
e 154 155
e 154 156
e 154 157
e 154 158
e 154 159
e 154 160
e 154 178
e 154 193
e 154 207
e 155 156
e 155 157
e 155 158
e 155 159
e 155 160
e 155 167
e 155 179
e 155 194
e 155 208
e 156 157
e 156 158
e 156 159
e 156 160
e 156 168
e 156 180
e 156 195
e 156 209
e 157 158
e 157 159
e 157 160
e 157 169
e 157 181
e 157 196
e 158 159
e 158 160
e 158 170
e 158 183
e 158 198
e 158 211
e 159 160
e 159 171
e 159 184
e 159 199
e 159 212
e 160 185
e 160 200
e 160 213
e 161 162
e 161 163
e 161 164
e 161 165
e 161 166
e 161 167
e 161 168
e 161 169
e 161 170
e 161 171
e 161 172
e 161 186
e 162 163
e 162 164
e 162 165
e 162 166
e 162 167
e 162 168
e 162 169
e 162 170
e 162 171
e 162 189
e 163 164
e 163 165
e 163 166
e 163 167
e 163 168
e 163 169
e 163 170
e 163 171
e 163 190
e 163 203
e 164 165
e 164 166
e 164 167
e 164 168
e 164 169
e 164 170
e 164 171
e 164 175
e 164 191
e 164 204
e 165 166
e 165 167
e 165 168
e 165 169
e 165 170
e 165 171
e 165 177
e 165 205
e 166 167
e 166 168
e 166 169
e 166 170
e 166 171
e 166 206
e 167 168
e 167 169
e 167 170
e 167 171
e 167 179
e 167 194
e 167 208
e 168 169
e 168 170
e 168 171
e 168 180
e 168 195
e 168 209
e 169 170
e 169 171
e 169 181
e 169 196
e 170 171
e 170 183
e 170 198
e 170 211
e 171 184
e 171 199
e 171 212
e 172 173
e 172 174
e 172 175
e 172 176
e 172 177
e 172 178
e 172 179
e 172 180
e 172 181
e 172 182
e 172 183
e 172 184
e 172 185
e 172 186
e 173 174
e 173 175
e 173 176
e 173 177
e 173 178
e 173 179
e 173 180
e 173 181
e 173 182
e 173 183
e 173 184
e 173 185
e 173 187
e 173 202
e 174 175
e 174 176
e 174 177
e 174 178
e 174 179
e 174 180
e 174 181
e 174 182
e 174 183
e 174 184
e 174 185
e 174 188
e 175 176
e 175 177
e 175 178
e 175 179
e 175 180
e 175 181
e 175 182
e 175 183
e 175 184
e 175 185
e 175 191
e 175 204
e 176 177
e 176 178
e 176 179
e 176 180
e 176 181
e 176 182
e 176 183
e 176 184
e 176 185
e 176 192
e 177 178
e 177 179
e 177 180
e 177 181
e 177 182
e 177 183
e 177 184
e 177 185
e 177 205
e 178 179
e 178 180
e 178 181
e 178 182
e 178 183
e 178 184
e 178 185
e 178 193
e 178 207
e 179 180
e 179 181
e 179 182
e 179 183
e 179 184
e 179 185
e 179 194
e 179 208
e 180 181
e 180 182
e 180 183
e 180 184
e 180 185
e 180 195
e 180 209
e 181 182
e 181 183
e 181 184
e 181 185
e 181 196
e 182 183
e 182 184
e 182 185
e 182 197
e 182 210
e 183 184
e 183 185
e 183 198
e 183 211
e 184 185
e 184 199
e 184 212
e 185 200
e 185 213
e 186 187
e 186 188
e 186 189
e 186 190
e 186 191
e 186 192
e 186 193
e 186 194
e 186 195
e 186 196
e 186 197
e 186 198
e 186 199
e 186 200
e 187 188
e 187 189
e 187 190
e 187 191
e 187 192
e 187 193
e 187 194
e 187 195
e 187 196
e 187 197
e 187 198
e 187 199
e 187 200
e 187 202
e 188 189
e 188 190
e 188 191
e 188 192
e 188 193
e 188 194
e 188 195
e 188 196
e 188 197
e 188 198
e 188 199
e 188 200
e 189 190
e 189 191
e 189 192
e 189 193
e 189 194
e 189 195
e 189 196
e 189 197
e 189 198
e 189 199
e 189 200
e 190 191
e 190 192
e 190 193
e 190 194
e 190 195
e 190 196
e 190 197
e 190 198
e 190 199
e 190 200
e 190 203
e 191 192
e 191 193
e 191 194
e 191 195
e 191 196
e 191 197
e 191 198
e 191 199
e 191 200
e 191 204
e 192 193
e 192 194
e 192 195
e 192 196
e 192 197
e 192 198
e 192 199
e 192 200
e 193 194
e 193 195
e 193 196
e 193 197
e 193 198
e 193 199
e 193 200
e 193 207
e 194 195
e 194 196
e 194 197
e 194 198
e 194 199
e 194 200
e 194 208
e 195 196
e 195 197
e 195 198
e 195 199
e 195 200
e 195 209
e 196 197
e 196 198
e 196 199
e 196 200
e 197 198
e 197 199
e 197 200
e 197 210
e 198 199
e 198 200
e 198 211
e 199 200
e 199 212
e 200 213
e 201 202
e 201 203
e 201 204
e 201 205
e 201 206
e 201 207
e 201 208
e 201 209
e 201 210
e 201 211
e 201 212
e 201 213
e 202 203
e 202 204
e 202 205
e 202 206
e 202 207
e 202 208
e 202 209
e 202 210
e 202 211
e 202 212
e 202 213
e 203 204
e 203 205
e 203 206
e 203 207
e 203 208
e 203 209
e 203 210
e 203 211
e 203 212
e 203 213
e 204 205
e 204 206
e 204 207
e 204 208
e 204 209
e 204 210
e 204 211
e 204 212
e 204 213
e 205 206
e 205 207
e 205 208
e 205 209
e 205 210
e 205 211
e 205 212
e 205 213
e 206 207
e 206 208
e 206 209
e 206 210
e 206 211
e 206 212
e 206 213
e 207 208
e 207 209
e 207 210
e 207 211
e 207 212
e 207 213
e 208 209
e 208 210
e 208 211
e 208 212
e 208 213
e 209 210
e 209 211
e 209 212
e 209 213
e 210 211
e 210 212
e 210 213
e 211 212
e 211 213
e 212 213
